
******************************************************************************
This program contains Ipopt, a library for large-scale nonlinear optimization.
 Ipopt is released as open source code under the Eclipse Public License (EPL).
         For more information visit http://projects.coin-or.org/Ipopt
******************************************************************************

This is Ipopt version 3.12.6, running with linear solver ma57.

Number of nonzeros in equality constraint Jacobian...:    13421
Number of nonzeros in inequality constraint Jacobian.:     2982
Number of nonzeros in Lagrangian Hessian.............:      357

Total number of variables............................:     1515
                     variables with only lower bounds:        0
                variables with lower and upper bounds:      595
                     variables with only upper bounds:        0
Total number of equality constraints.................:     1065
Total number of inequality constraints...............:     1286
        inequality constraints with only lower bounds:        0
   inequality constraints with lower and upper bounds:        0
        inequality constraints with only upper bounds:     1286

iter    objective    inf_pr   inf_du lg(mu)  ||d||  lg(rg) alpha_du alpha_pr  ls
   0 -5.1478218e+00 1.67e+03 1.00e+02  -1.0 0.00e+00    -  0.00e+00 0.00e+00   0
Reallocating memory for MA57: lfact (217072)
   1 -2.8923779e+03 1.67e+03 1.00e+02  -1.0 1.70e+03    -  4.53e-04 9.65e-05f  1
   2 -3.2830737e+04 1.67e+03 9.99e+01  -1.0 1.71e+03    -  5.74e-04 1.00e-03f  1
   3 -1.3247442e+05 1.66e+03 9.96e+01  -1.0 1.71e+03    -  1.13e-03 3.34e-03f  1
   4 -2.6808588e+05 1.65e+03 9.91e+01  -1.0 1.70e+03    -  3.44e-03 4.58e-03f  1
   5 -6.4103794e+05 1.63e+03 9.79e+01  -1.0 1.69e+03    -  6.37e-03 1.28e-02f  1
   6 -1.3252540e+06 1.59e+03 9.55e+01  -1.0 1.67e+03    -  1.52e-02 2.42e-02f  1
   7 -2.8175308e+06 1.50e+03 9.02e+01  -1.0 1.63e+03    -  1.14e-02 5.63e-02f  1
   8 -3.8181706e+06 1.44e+03 8.64e+01  -1.0 1.53e+03    -  2.21e-02 4.21e-02f  1
   9 -4.1048182e+06 1.42e+03 8.53e+01  -1.0 1.47e+03    -  1.05e-02 1.30e-02f  1
iter    objective    inf_pr   inf_du lg(mu)  ||d||  lg(rg) alpha_du alpha_pr  ls
  10 -4.3042024e+06 1.41e+03 8.45e+01  -1.0 1.44e+03    -  9.29e-03 9.26e-03f  1
  11 -4.4581032e+06 1.40e+03 8.39e+01  -1.0 1.43e+03    -  8.82e-03 7.28e-03f  1
  12 -4.6017183e+06 1.39e+03 8.33e+01  -1.0 1.41e+03    -  1.07e-02 6.91e-03f  1
  13 -4.7515679e+06 1.38e+03 8.27e+01  -1.0 1.39e+03    -  1.29e-02 7.32e-03f  1
  14 -4.9153197e+06 1.37e+03 8.20e+01  -1.0 1.38e+03    -  1.50e-02 8.14e-03f  1
  15 -5.1017219e+06 1.35e+03 8.12e+01  -1.0 1.36e+03    -  1.81e-02 9.44e-03f  1
  16 -5.3254827e+06 1.34e+03 8.03e+01  -1.0 1.35e+03    -  2.29e-02 1.16e-02f  1
  17 -5.6134771e+06 1.32e+03 7.90e+01  -1.0 1.33e+03    -  3.10e-02 1.53e-02f  1
  18 -5.9914476e+06 1.29e+03 7.74e+01  -1.0 1.29e+03    -  1.35e-02 2.07e-02f  1
  19 -6.8075687e+06 1.23e+03 7.38e+01  -1.0 1.27e+03    -  9.20e-03 4.73e-02f  1
iter    objective    inf_pr   inf_du lg(mu)  ||d||  lg(rg) alpha_du alpha_pr  ls
  20 -6.8594175e+06 1.23e+03 7.35e+01  -1.0 1.15e+03    -  1.34e-02 3.27e-03f  1
  21 -7.1039020e+06 1.21e+03 7.24e+01  -1.0 1.17e+03    -  1.29e-02 1.55e-02f  1
  22 -7.4638115e+06 1.18e+03 7.07e+01  -1.0 1.11e+03    -  1.72e-02 2.38e-02f  1
  23 -7.5654130e+06 1.17e+03 7.02e+01  -1.0 1.09e+03    -  1.11e-02 6.97e-03f  1
  24 -7.7063459e+06 1.16e+03 6.95e+01  -1.0 1.08e+03    -  1.19e-02 9.84e-03f  1
  25 -7.7850691e+06 1.15e+03 6.91e+01  -1.0 1.13e+03    -  3.64e-02 5.55e-03f  1
  26 -8.8471667e+06 1.06e+03 6.37e+01  -1.0 1.13e+03    -  2.30e-02 7.84e-02f  1
  27 -9.9748159e+06 9.57e+02 5.74e+01  -1.0 1.06e+03    -  1.87e-02 9.86e-02f  1
  28 -1.0596498e+07 8.94e+02 5.37e+01  -1.0 9.64e+02    -  6.54e-02 6.55e-02f  1
  29 -1.0953254e+07 8.56e+02 5.14e+01  -1.0 9.09e+02    -  2.38e-02 4.25e-02f  1
iter    objective    inf_pr   inf_du lg(mu)  ||d||  lg(rg) alpha_du alpha_pr  ls
  30 -1.1263035e+07 8.22e+02 4.93e+01  -1.0 8.72e+02    -  2.98e-02 4.01e-02f  1
  31 -1.1578314e+07 7.86e+02 4.71e+01  -1.0 8.37e+02    -  4.51e-02 4.43e-02f  1
  32 -1.1898140e+07 7.47e+02 4.48e+01  -1.0 8.02e+02    -  6.55e-02 4.91e-02f  1
  33 -1.2199645e+07 7.09e+02 4.25e+01  -1.0 7.65e+02    -  9.73e-02 5.11e-02f  1
  34 -1.3001580e+07 5.96e+02 3.58e+01  -1.0 7.28e+02    -  1.43e-01 1.59e-01f  1
  35 -1.3532479e+07 5.09e+02 3.06e+01  -1.0 6.22e+02    -  1.37e-01 1.46e-01f  1
  36 -1.3959851e+07 4.27e+02 2.56e+01  -1.0 5.43e+02    -  6.54e-02 1.61e-01f  1
  37 -1.4332869e+07 3.42e+02 2.05e+01  -1.0 4.67e+02    -  1.24e-01 2.00e-01f  1
  38 -1.4580889e+07 2.71e+02 1.62e+01  -1.0 3.84e+02    -  9.04e-02 2.06e-01f  1
  39 -1.4757560e+07 2.08e+02 1.25e+01  -1.0 3.13e+02    -  1.81e-01 2.32e-01f  1
iter    objective    inf_pr   inf_du lg(mu)  ||d||  lg(rg) alpha_du alpha_pr  ls
  40 -1.4986961e+07 7.60e+01 9.86e+00  -1.0 2.66e+02    -  1.64e-01 6.35e-01f  1
  41 -1.5022640e+07 2.88e+01 1.19e+01  -1.0 1.15e+02    -  3.03e-01 6.21e-01f  1
  42 -1.5030465e+07 9.17e+00 1.62e+01  -1.0 5.07e+01    -  2.72e-01 6.81e-01f  1
  43 -1.5032206e+07 3.19e+00 1.39e+01  -1.0 2.90e+01    -  2.92e-01 6.52e-01f  1
  44 -1.5032535e+07 2.19e+00 9.38e+00  -1.0 1.89e+01    -  1.94e-01 3.14e-01f  1
  45 -1.5032939e+07 7.60e-01 3.09e+01  -1.0 1.53e+01    -  1.88e-01 6.52e-01f  1
  46 -1.5033017e+07 5.08e-01 4.79e+01  -1.0 1.51e+01    -  7.44e-01 3.31e-01f  1
  47 -1.5033099e+07 2.25e-01 1.39e+01  -1.0 1.67e+01    -  5.27e-01 5.57e-01f  1
  48 -1.5033126e+07 1.02e-01 4.60e+01  -1.0 9.06e+00    -  6.18e-01 5.45e-01f  1
  49 -1.5033132e+07 7.76e-02 5.36e+02  -1.0 6.11e+00    -  6.61e-01 2.43e-01f  2
iter    objective    inf_pr   inf_du lg(mu)  ||d||  lg(rg) alpha_du alpha_pr  ls
  50 -1.5033142e+07 4.94e-02 5.81e+02  -1.0 1.34e+01    -  5.14e-01 3.63e-01f  2
  51 -1.5033152e+07 7.51e-03 4.39e+02  -1.0 6.91e+00    -  9.90e-01 8.48e-01h  1
  52 -1.5033152e+07 4.39e-03 9.45e+03  -1.0 2.22e+00    -  9.90e-01 4.16e-01h  1
  53 -1.5033153e+07 1.84e-03 1.48e+04  -1.0 1.24e+00    -  9.93e-01 5.81e-01h  1
  54 -1.5033153e+07 5.75e-04 2.22e+04  -1.0 5.25e-01    -  1.00e+00 6.88e-01h  1
  55 -1.5033153e+07 2.20e-04 5.94e+04  -1.0 1.63e-01    -  1.00e+00 6.17e-01h  1
  56 -1.5033153e+07 8.96e-06 9.71e+03  -1.0 6.26e-02    -  1.00e+00 9.59e-01h  1
  57 -1.5033153e+07 7.83e-10 1.00e-06  -1.0 2.55e-03    -  1.00e+00 1.00e+00f  1
  58 -1.5033485e+07 7.48e-10 3.18e+04  -3.8 4.53e+00    -  8.54e-01 8.01e-01f  1
  59 -1.5033531e+07 3.51e-10 3.27e+04  -3.8 8.44e+00    -  7.35e-01 5.31e-01f  1
Reallocating memory for MA57: lfact (228536)
iter    objective    inf_pr   inf_du lg(mu)  ||d||  lg(rg) alpha_du alpha_pr  ls
  60 -1.5033557e+07 1.19e-10 8.78e+03  -3.8 8.58e+00    -  5.60e-01 6.61e-01f  1
  61 -1.5033567e+07 2.63e-11 6.46e+01  -3.8 6.88e+00    -  5.84e-01 7.80e-01f  1
  62 -1.5033571e+07 1.22e-12 8.39e+02  -3.8 3.34e+00    -  8.02e-01 1.00e+00f  1
  63 -1.5033571e+07 1.39e-12 1.50e-09  -3.8 7.51e-01    -  1.00e+00 1.00e+00f  1
  64 -1.5033572e+07 9.03e-13 4.20e+01  -5.7 4.32e-01    -  9.06e-01 9.53e-01f  1
Reallocating memory for MA57: lfact (252922)
  65 -1.5033572e+07 1.31e-12 6.86e+00  -5.7 1.59e-01    -  1.00e+00 8.39e-01f  1
  66 -1.5033572e+07 1.08e-12 1.64e+00  -5.7 9.65e-02    -  1.00e+00 7.60e-01f  1
  67 -1.5033572e+07 1.32e-12 1.84e-11  -5.7 4.45e-02    -  1.00e+00 1.00e+00f  1
  68 -1.5033572e+07 1.36e-12 1.91e+00  -8.6 1.75e-02    -  9.17e-01 7.49e-01f  1
  69 -1.5033572e+07 1.28e-12 7.62e-01  -8.6 5.91e-03    -  8.98e-01 7.08e-01f  1
iter    objective    inf_pr   inf_du lg(mu)  ||d||  lg(rg) alpha_du alpha_pr  ls
  70 -1.5033572e+07 8.12e-13 9.89e-02  -8.6 1.85e-03    -  7.55e-01 8.56e-01f  1
Reallocating memory for MA57: lfact (272167)
  71 -1.5033572e+07 1.10e-12 1.74e-01  -8.6 7.86e-04    -  2.18e-01 9.45e-01f  1
  72 -1.5033572e+07 1.07e-12 2.95e-03  -8.6 2.91e-04    -  1.00e+00 9.48e-01f  1
  73 -1.5033572e+07 8.37e-13 2.27e-13  -8.6 2.38e-04    -  1.00e+00 1.00e+00f  1

Number of Iterations....: 73

                                   (scaled)                 (unscaled)
Objective...............:  -2.0879960913885911e+06   -1.5033571857997855e+07
Dual infeasibility......:   2.2737367544323206e-13    1.6370904631912707e-12
Constraint violation....:   8.3666407135751797e-13    8.3666407135751797e-13
Complementarity.........:   6.1897098543263760e-09    4.4565910951149908e-08
Overall NLP error.......:   6.1897098543263760e-09    4.4565910951149908e-08


Number of objective function evaluations             = 76
Number of objective gradient evaluations             = 74
Number of equality constraint evaluations            = 76
Number of inequality constraint evaluations          = 76
Number of equality constraint Jacobian evaluations   = 74
Number of inequality constraint Jacobian evaluations = 74
Number of Lagrangian Hessian evaluations             = 73
Total CPU secs in IPOPT (w/o function evaluations)   =      0.743
Total CPU secs in NLP function evaluations           =      0.053

EXIT: Optimal Solution Found.
Note: The following floating-point exceptions are signalling: IEEE_OVERFLOW_FLAG IEEE_UNDERFLOW_FLAG IEEE_DENORMAL

************************ CUTEst statistics ************************


 Package used            :  IPOPT
 Problem                 :  MPC9      
 # variables             =            1530
 # constraints           =            2351
 # objective functions   =        0.1510000E+03
 # objective gradients   =        0.7500000E+02
 # objective Hessians    =        0.7400000E+02
 # Hessian-vector prdct  =        0.0000000E+00
 # constraints functions =        0.1520000E+03
 # constraints gradients =        0.7600000E+02
 # constraints Hessians  =        0.7400000E+02
 Exit code               =               0
 Final f                 =  -0.1503357E+08
 Set up time             =            0.05 seconds
 Solve time              =            0.98 seconds


******************************************************************

System Time =       0.7630000114 s.
